unknown
(model
; cardinality of BoundSet is 1
(declare-sort BoundSet 0)
; rep: @uc_BoundSet_0
(declare-sort UnboundSet 0)
(define-fun IsNoShirt ((BOUND_VARIABLE_361 BoundSet)) Bool false)
(define-fun IsTampering ((BOUND_VARIABLE_361 BoundSet)) Bool false)
(define-fun IsTamperedWith ((BOUND_VARIABLE_361 BoundSet)) Bool false)
(define-fun IsMetal ((BOUND_VARIABLE_361 BoundSet)) Bool false)
)
